minizinc/sudoku_problems2/sudoku_p29.dzn
%
% sudoku_p29.dzn
% See http://www.hakank.org/minizinc/sudoku_gcc.mzn
% 
% This problem is problem 29 from
% Gecode's sudoku.cpp
% http://www.gecode.org/gecode-doc-latest/sudoku_8cpp-source.html
% 
x = array2d(1..n, 1..n, [   
% 29
  9,  _, 20,  _,  _,  6, 13,  _, 18,  5,  _,  _,  _,  _,  _,  _,  _,  _,  _,  _,  _, 17,  _,  _,  _,
  _, 18,  _, 14,  _,  _, 11, 20,  _,  _,  _, 16, 23,  _,  _,  _,  6,  _, 21,  _,  _,  _,  3,  _,  _,
  7,  _,  _,  _,  _,  2,  _,  _, 21,  8, 14,  _, 20,  _, 13,  1,  _, 25,  5, 18,  _,  6,  _,  _, 10,
  _,  _, 23,  _, 21, 14, 17,  _, 10,  3,  2,  _,  _, 12, 22,  9,  _,  _,  _,  _,  _,  _,  _,  _,  _,
  _,  _,  2,  _,  _,  _,  _,  9, 23,  _,  _,  _,  3,  _, 18, 12,  _,  _,  _, 19,  _, 20, 15,  8,  _,
  _,  _,  _,  _,  _,  _, 16, 10,  _,  _, 12,  _,  7, 19, 25, 23, 18,  3,  _,  _,  _,  _,  6, 21,  _,
  _,  _,  _,  _, 14,  _, 19,  _,  8, 20,  _,  _, 18,  _,  _,  _,  _,  _,  9,  7, 23, 16,  2,  _, 11,
 24,  7,  _,  _,  3, 17, 18,  _,  _,  _, 22,  _,  _,  _,  _,  _, 13, 12, 15,  5,  _,  _,  9,  1,  4,
 21,  _, 22,  _,  4,  _,  3,  _,  1,  9,  _, 13,  _,  _,  2,  _,  _,  _,  _,  _,  _, 15,  _, 20,  _,
 11,  _,  _,  _,  _, 15,  _,  _,  _, 24,  9,  _,  6, 10, 23, 16,  _,  2,  _, 25, 17,  _, 14,  _,  5,
  8, 20, 13, 22,  _,  _,  _,  5,  _,  1,  _,  _,  _,  _, 16,  _,  _,  _,  _,  _,  _, 25,  _,  _,  6,
  _,  4,  _, 17,  _, 21,  _, 12,  _,  _, 19,  2,  _,  _,  _,  _, 16,  _,  _,  3, 18, 24, 23,  _,  _,
 12,  _, 10,  _,  _, 19,  _,  _, 14,  _,  _,  _,  1, 20,  _,  _,  _,  _,  _,  _,  9,  2,  _,  5,  _,
  _,  9, 24,  _, 23, 25,  _,  2,  _,  _,  _, 18, 10,  _,  _,  _,  _, 17,  _,  _, 16,  _,  _,  7,  _,
  _,  _,  _, 18,  5,  _,  _, 24,  _, 23,  4,  _, 17,  _,  _,  _,  2, 13, 12, 20, 19,  _,  _,  _, 14,
  5,  6,  _,  _,  _,  _,  1,  _, 13,  _,  _, 10, 19,  _,  _,  _,  _,  _,  7,  _, 21,  _, 24,  _,  _,
 20,  _,  8,  _, 17,  _,  7,  _,  9,  _,  5,  _,  _,  _,  _, 10, 12,  _,  _, 24,  _,  _, 16,  6, 15,
  3,  _,  _,  _,  _,  _,  _,  _,  _,  _,  _, 24,  _,  _, 12,  _, 15,  _, 25,  6, 20,  _,  5,  _,  _,
  _,  _,  _, 24, 12,  _,  4, 19,  2,  _,  3, 14,  _,  9,  _,  _,  _, 23,  _, 17,  7,  _,  _, 25,  1,
  _, 11,  _,  7,  _, 20,  _,  _,  _,  _,  _,  6,  _, 22, 17,  _, 21, 19,  _,  _, 10,  _,  _,  _,  _,
 18,  _,  _,  4,  _,  _,  _,  _,  _,  _,  _,  _,  _, 25,  _,  _, 14,  7, 13,  9, 24,  _, 11,  _, 17,
 14,  _,  3, 16,  _, 24, 25,  _,  _,  _, 18,  1, 12, 11, 21,  _,  _, 15, 23,  4,  _,  _,  8,  2,  _,
  _, 10,  _,  _,  9, 23,  _,  8,  _, 14,  _,  _,  _,  7,  3, 24,  _,  _, 17,  _,  _,  _,  _,  4,  _,
  _, 22,  _, 12,  _,  3,  _,  _,  _,  _, 13, 20,  _,  _, 14, 18,  _,  _,  _,  _,  _,  _, 19, 16,  _,
  _, 17, 25,  _,  _, 13,  _,  _, 15, 11,  _,  _,  _, 23, 24,  _,  1, 20, 19,  8,  _, 10, 21,  _,  _
]);

n = 25;


